multiobj/instances/uniform/Ter.6.3.0.80.1.in
6 3
0 598 743 1 484 832 
598 0 703 248 94 391 
743 703 0 593 298 516 
1 248 593 0 664 813 
484 94 298 664 0 822 
832 391 516 813 822 0 
0 510 619 572 14 505 
510 0 568 921 990 60 
619 568 0 812 497 469 
572 921 812 0 116 314 
14 990 497 116 0 191 
505 60 469 314 191 0 
0 325 405 578 272 459 
325 0 752 934 977 87 
405 752 0 825 623 482 
578 934 825 0 104 555 
272 977 623 104 0 280 
459 87 482 555 280 0 
0 490 617 607 152 670 
490 0 683 857 976 109 
617 683 0 896 751 567 
607 857 896 0 197 582 
152 976 751 197 0 241 
670 109 567 582 241 0 
