multiobj/solutions/Ter.6.3.0.80.1.out
2 3
2 3 4 1 0 5 
5737536 6497600 7150232 
2 0 1 4 3 5 
5926282 6490218 7253526 
